false false false
presolving:
presolving (0 rounds: 0 fast, 0 medium, 0 exhaustive):
 0 deleted vars, 0 deleted constraints, 0 added constraints, 0 tightened bounds, 0 added holes, 0 changed sides, 0 changed coefficients
 0 implications, 0 cliques
presolved problem has 64 variables (64 bin, 0 int, 0 impl, 0 cont) and 58 constraints
     58 constraints of type <linear>
transformed objective value is always integral (scale: 1)
Presolving Time: 0.00

 time | node  | left  |LP iter|LP it/n|mem/heur|mdpt |vars |cons |rows |cuts |sepa|confs|strbr|  dualbound   | primalbound  |  gap   | compl. 
p 0.0s|     1 |     0 |     0 |     - |shiftand|   0 |  64 |  58 |  58 |   0 |  0 |   0 |   0 |      --      | 6.000000e+00 |    Inf | unknown
 time | node  | left  |LP iter|LP it/n|mem/heur|mdpt |vars |cons |rows |cuts |sepa|confs|strbr|  dualbound   | primalbound  |  gap   | compl. 
  1.6s|     1 |     0 |    12 |     - |  1247k |   0 | 176 |  58 |  58 |   0 |  0 |   0 |   0 | 1.000000e+00 | 6.000000e+00 | 500.00%| unknown
slurmstepd-htc-cmp457: error: *** JOB 16657447 ON htc-cmp457 CANCELLED AT 2024-01-28T05:31:05 DUE TO TIME LIMIT ***
